
Gurobi 10.0.1 (linux64) logging started Sun Nov 26 17:11:23 2023

Set parameter LogFile to value "ArtificialInstance/ExperimentV2/S4T5K3/AdRo/gurobiDoRo59.txt"
Gurobi Optimizer version 10.0.1 build v10.0.1rc0 (linux64)

CPU model: AMD EPYC 7H12 64-Core Processor, instruction set [SSE2|AVX|AVX2]
Thread count: 128 physical cores, 128 logical processors, using up to 32 threads

Academic license 656792 - for non-commercial use only - registered to b.___@student.vu.nl
Optimize a model with 27254 rows, 25231 columns and 98404 nonzeros
Model fingerprint: 0xd1335b01
Variable types: 1 continuous, 25230 integer (25230 binary)
Coefficient statistics:
  Matrix range     [1e+00, 4e+01]
  Objective range  [1e+00, 2e+01]
  Bounds range     [1e+00, 1e+00]
  RHS range        [1e+00, 1e+00]
Presolve removed 12292 rows and 11488 columns
Presolve time: 0.34s
Presolved: 14962 rows, 13743 columns, 53698 nonzeros
Variable types: 1 continuous, 13742 integer (13742 binary)
Found heuristic solution: objective 111.8824493

Root relaxation: cutoff, 4217 iterations, 0.25 seconds (0.19 work units)

    Nodes    |    Current Node    |     Objective Bounds      |     Work
 Expl Unexpl |  Obj  Depth IntInf | Incumbent    BestBd   Gap | It/Node Time

     0     0     cutoff    0       111.88245  111.88245  0.00%     -    0s

Explored 1 nodes (4217 simplex iterations) in 0.75 seconds (0.57 work units)
Thread count was 32 (of 128 available processors)

Solution count 1: 111.882 

Optimal solution found (tolerance 1.00e-04)
Best objective 1.118824493046e+02, best bound 1.118824493046e+02, gap 0.0000%
